NAME: cityu10
COMMENT : 10 locations
COMMENT : Best: 384.43
TYPE: TSP
DIMENSION: 10
EDGE_WEIGHT_TYPE: CITYU
NODE_COORD_SECTION
1 2 56
2 2 226
3 1 1753
4 1 1615
5 2 52
6 1 1542
7 1 1614
8 1 1847
9 1 1576
10 1 1562
